SECTION Graph
Nodes 564
Edges 1112
E 1 510 7
E 1 511 4
E 2 3 14
E 2 512 4
E 3 4 1
E 3 513 4
E 4 514 4
E 5 6 1
E 6 7 14
E 7 8 1
E 8 191 7
E 9 10 1
E 9 464 119
E 9 494 7
E 9 511 19
E 10 11 14
E 10 466 119
E 10 512 19
E 11 12 1
E 11 470 119
E 11 513 19
E 12 472 119
E 12 514 19
E 13 14 1
E 13 426 30
E 13 441 2
E 14 15 14
E 14 442 2
E 15 16 1
E 15 451 2
E 16 452 2
E 17 18 1
E 17 503 11
E 17 508 7
E 18 19 14
E 18 504 11
E 19 20 1
E 19 509 19
E 20 510 19
E 21 22 1
E 21 490 7
E 21 495 1
E 21 500 4
E 22 23 14
E 22 497 1
E 22 502 4
E 23 24 1
E 23 505 1
E 23 509 4
E 24 507 1
E 24 510 4
E 24 511 7
E 25 26 1
E 25 458 99
E 25 475 8
E 25 479 1
E 26 27 14
E 26 476 8
E 26 480 1
E 27 28 1
E 27 485 8
E 27 489 1
E 28 486 8
E 28 490 1
E 28 495 7
E 29 30 1
E 29 414 99
E 29 431 11
E 29 473 119
E 30 31 14
E 30 432 11
E 30 474 119
E 31 32 1
E 31 438 11
E 31 477 119
E 32 440 11
E 32 459 22
E 32 478 119
E 33 34 1
E 33 384 114
E 33 423 13
E 33 429 10
E 34 35 14
E 34 424 13
E 34 430 10
E 35 36 1
E 35 427 13
E 35 433 10
E 36 428 13
E 36 435 10
E 36 449 30
E 37 38 1
E 37 351 114
E 37 421 8
E 38 39 14
E 38 422 8
E 39 40 1
E 39 425 8
E 40 426 8
E 41 42 1
E 41 463 12
E 42 43 14
E 42 465 12
E 43 44 1
E 43 469 12
E 44 471 12
E 45 46 1
E 45 447 13
E 45 463 11
E 46 47 14
E 46 448 13
E 46 465 11
E 47 48 1
E 47 457 13
E 47 469 11
E 48 458 13
E 48 471 11
E 48 487 99
E 49 50 1
E 49 437 10
E 49 447 8
E 50 51 14
E 50 439 10
E 50 448 8
E 51 52 1
E 51 445 10
E 51 457 8
E 52 446 10
E 52 458 8
E 52 475 99
E 53 54 1
E 53 382 10
E 53 387 7
E 53 393 2
E 54 55 14
E 54 384 10
E 54 394 2
E 55 56 1
E 55 386 23
E 55 409 2
E 56 388 23
E 56 410 2
E 56 429 99
E 57 58 1
E 57 366 7
E 57 373 2
E 57 381 9
E 58 59 14
E 58 374 2
E 58 383 9
E 59 60 1
E 59 389 2
E 59 397 9
E 60 390 2
E 60 395 7
E 60 400 9
E 61 62 1
E 61 350 24
E 61 378 7
E 61 391 6
E 62 63 14
E 62 354 24
E 62 392 6
E 63 64 1
E 63 375 24
E 63 403 6
E 64 377 24
E 64 405 6
E 64 407 7
E 65 66 1
E 65 339 9
E 65 343 7
E 65 350 1
E 66 67 14
E 66 341 9
E 66 354 1
E 67 68 1
E 67 365 9
E 67 375 1
E 68 366 9
E 68 377 1
E 68 381 7
E 69 70 1
E 69 296 11
E 69 301 7
E 69 314 2
E 70 71 14
E 70 297 11
E 70 317 2
E 71 72 1
E 71 320 11
E 71 342 2
E 72 323 11
E 72 344 2
E 72 379 30
E 73 74 1
E 73 271 7
E 73 283 5
E 74 75 14
E 74 286 5
E 75 76 1
E 75 303 4
E 76 307 4
E 77 78 1
E 77 308 7
E 77 313 1
E 77 329 9
E 78 79 14
E 78 316 1
E 78 332 9
E 79 80 1
E 79 340 1
E 79 353 9
E 80 343 1
E 80 350 7
E 80 358 9
E 81 82 1
E 81 277 7
E 81 278 5
E 81 298 9
E 82 83 14
E 82 279 5
E 82 299 9
E 83 84 1
E 83 300 5
E 83 324 9
E 84 301 5
E 84 322 7
E 84 326 9
E 85 86 1
E 85 254 7
E 85 255 5
E 85 268 9
E 86 87 14
E 86 258 5
E 86 269 9
E 87 88 1
E 87 270 5
E 87 285 9
E 88 271 5
E 88 283 7
E 88 287 9
E 89 90 1
E 89 112 20
E 89 312 8
E 89 319 6
E 90 91 14
E 90 321 6
E 91 92 1
E 91 345 6
E 91 396 38
E 92 346 6
E 92 391 30
E 92 399 38
E 93 94 1
E 93 282 9
E 93 319 15
E 94 95 14
E 94 284 9
E 94 321 15
E 95 96 1
E 95 305 9
E 95 345 15
E 96 308 9
E 96 329 7
E 96 346 15
E 97 98 1
E 97 262 9
E 97 282 12
E 98 99 14
E 98 263 9
E 98 284 12
E 99 100 1
E 99 276 9
E 99 305 12
E 100 277 9
E 100 298 7
E 100 308 12
E 101 102 1
E 101 233 9
E 101 262 16
E 102 103 14
E 102 234 9
E 102 263 16
E 103 104 1
E 103 252 9
E 103 276 16
E 104 254 9
E 104 268 7
E 104 277 16
E 105 106 1
E 105 275 53
E 105 336 10
E 106 107 14
E 106 338 10
E 107 108 1
E 107 362 10
E 107 401 26
E 108 364 10
E 108 396 22
E 108 402 26
E 109 110 1
E 109 246 53
E 109 292 13
E 109 336 15
E 110 111 14
E 110 294 13
E 110 338 15
E 111 112 1
E 111 312 13
E 111 362 15
E 112 311 16
E 112 364 15
E 113 114 1
E 114 115 14
E 115 116 1
E 116 233 12
E 116 255 30
E 117 118 1
E 117 238 8
E 117 240 7
E 117 260 10
E 118 119 14
E 118 241 8
E 118 261 10
E 119 120 1
E 119 257 8
E 119 274 10
E 120 259 8
E 120 275 10
E 120 336 53
E 121 122 1
E 121 125 23
E 121 200 128
E 122 123 14
E 122 126 23
E 123 124 1
E 123 127 23
E 124 128 23
E 124 401 91
E 125 126 1
E 125 221 13
E 126 127 14
E 126 224 13
E 127 128 1
E 127 237 13
E 128 240 13
E 128 260 10
E 129 130 1
E 129 133 23
E 129 221 8
E 130 131 14
E 130 134 23
E 130 224 8
E 131 132 1
E 131 222 7
E 131 237 8
E 132 225 7
E 132 238 7
E 132 240 8
E 133 134 1
E 134 135 14
E 135 136 1
E 135 222 16
E 136 225 16
E 136 288 76
E 137 138 1
E 137 144 7
E 138 139 14
E 139 140 1
E 141 142 1
E 141 148 7
E 142 143 14
E 143 144 1
E 145 146 1
E 145 304 30
E 146 147 14
E 147 148 1
E 149 150 1
E 149 256 39
E 149 280 13
E 150 151 14
E 150 281 13
E 151 152 1
E 151 302 13
E 152 304 13
E 153 154 1
E 153 265 7
E 153 272 1
E 153 280 8
E 154 155 14
E 154 273 1
E 154 281 8
E 155 156 1
E 155 289 1
E 155 302 8
E 156 291 1
E 156 304 8
E 157 158 1
E 157 244 7
E 157 251 1
E 157 272 20
E 158 159 14
E 158 253 1
E 158 273 20
E 159 160 1
E 159 266 1
E 159 289 20
E 160 267 1
E 160 291 20
E 161 162 1
E 161 220 7
E 161 229 1
E 161 251 20
E 162 230 1
E 162 236 8
E 162 253 20
E 163 164 1
E 163 201 84
E 163 236 6
E 163 266 20
E 164 202 84
E 164 267 20
E 165 166 18
E 165 199 6
E 166 201 6
E 166 235 83
E 167 168 1
E 167 227 20
E 167 242 7
E 167 248 1
E 168 169 14
E 168 228 20
E 168 250 1
E 169 170 1
E 169 243 20
E 169 264 1
E 170 244 20
E 170 265 1
E 170 272 7
E 171 172 1
E 171 215 20
E 171 218 7
E 171 227 1
E 172 173 14
E 172 216 20
E 172 228 1
E 173 174 1
E 173 219 20
E 173 243 1
E 174 220 20
E 174 244 1
E 174 251 7
E 175 176 1
E 175 215 1
E 176 177 14
E 176 216 1
E 177 178 1
E 177 219 1
E 178 220 1
E 178 229 7
E 179 180 1
E 179 194 19
E 179 212 22
E 179 223 1
E 180 181 14
E 180 226 1
E 181 182 1
E 181 239 1
E 181 247 8
E 182 242 1
E 182 248 7
E 182 249 8
E 183 184 1
E 183 208 7
E 183 213 1
E 183 223 20
E 184 185 14
E 184 214 1
E 184 226 20
E 185 186 1
E 185 217 1
E 185 239 20
E 186 218 1
E 186 227 7
E 186 242 20
E 187 188 1
E 187 205 3
E 188 189 14
E 188 206 3
E 189 190 1
E 189 209 3
E 190 211 3
E 190 215 7
E 191 192 1
E 191 210 12
E 192 193 14
E 192 212 12
E 193 194 1
E 193 207 33
E 194 208 33
E 194 247 26
E 194 256 23
E 195 196 1
E 195 203 18
E 196 197 14
E 196 204 18
E 197 198 1
E 197 207 18
E 198 205 7
E 198 208 18
E 199 200 1
E 199 201 18
E 200 202 18
E 201 202 1
E 203 204 1
E 203 210 21
E 204 207 14
E 204 212 21
E 205 206 1
E 205 213 17
E 206 209 14
E 206 214 17
E 207 208 1
E 209 211 1
E 209 217 17
E 210 212 1
E 211 218 17
E 213 214 1
E 214 217 14
E 215 216 1
E 216 219 14
E 217 218 1
E 219 220 1
E 221 224 1
E 222 225 1
E 223 226 1
E 224 237 14
E 225 231 7
E 226 239 14
E 227 228 1
E 228 243 14
E 229 230 1
E 230 235 8
E 231 232 1
E 231 238 7
E 232 241 7
E 232 245 14
E 233 234 1
E 234 252 14
E 235 236 1
E 237 240 1
E 238 241 1
E 239 242 1
E 241 257 14
E 243 244 1
E 245 246 1
E 245 257 7
E 246 259 7
E 247 249 1
E 248 250 1
E 249 256 4
E 249 280 30
E 250 264 14
E 251 253 1
E 252 254 1
E 253 266 14
E 255 258 1
E 257 259 1
E 258 270 14
E 260 261 1
E 261 274 14
E 262 263 1
E 263 276 14
E 264 265 1
E 266 267 1
E 268 269 1
E 268 278 11
E 269 279 11
E 269 285 14
E 270 271 1
E 272 273 1
E 273 289 14
E 274 275 1
E 276 277 1
E 278 279 1
E 279 300 14
E 280 281 1
E 281 302 14
E 282 284 1
E 283 286 1
E 283 293 7
E 284 305 14
E 285 287 1
E 285 300 11
E 286 295 7
E 286 306 14
E 287 296 7
E 287 301 11
E 288 290 1
E 288 292 3
E 289 291 1
E 290 294 3
E 290 310 14
E 292 294 1
E 293 295 1
E 293 296 2
E 294 312 14
E 295 297 2
E 295 315 14
E 296 297 1
E 297 320 14
E 298 299 1
E 298 313 11
E 299 316 11
E 299 324 14
E 300 301 1
E 302 304 1
E 303 306 1
E 303 307 1
E 305 308 1
E 306 309 1
E 306 315 7
E 307 309 1
E 307 349 30
E 309 318 7
E 310 311 1
E 310 312 3
E 311 319 10
E 313 316 1
E 314 317 1
E 314 322 3
E 315 318 1
E 315 320 2
E 316 340 14
E 317 325 3
E 317 342 14
E 318 323 2
E 318 367 30
E 319 321 1
E 320 323 1
E 321 345 14
E 322 325 1
E 322 330 7
E 323 331 7
E 324 326 1
E 324 327 2
E 325 333 7
E 325 347 14
E 326 328 2
E 326 335 7
E 327 328 1
E 327 340 9
E 328 339 7
E 328 343 9
E 329 332 1
E 329 352 15
E 330 333 1
E 330 335 2
E 331 334 1
E 331 369 23
E 332 353 14
E 332 357 15
E 333 337 2
E 333 355 14
E 334 356 14
E 334 371 23
E 335 337 1
E 335 339 2
E 336 338 1
E 337 341 2
E 337 361 14
E 338 362 14
E 339 341 1
E 340 343 1
E 341 365 14
E 342 344 1
E 342 347 3
E 344 348 3
E 344 382 30
E 345 346 1
E 346 352 7
E 347 348 1
E 347 355 7
E 348 359 7
E 349 351 1
E 349 367 8
E 350 354 1
E 351 368 8
E 352 357 1
E 353 358 1
E 353 376 15
E 354 375 14
E 355 359 1
E 355 361 2
E 356 360 1
E 356 385 23
E 357 376 14
E 358 378 15
E 359 363 2
E 359 369 7
E 360 370 7
E 360 387 23
E 361 363 1
E 361 365 2
E 362 364 1
E 363 366 2
E 363 373 7
E 365 366 1
E 367 368 1
E 367 370 2
E 368 372 2
E 368 421 114
E 369 371 1
E 369 373 2
E 370 372 1
E 370 379 11
E 371 374 2
E 371 385 14
E 372 380 11
E 372 386 14
E 373 374 1
E 374 389 14
E 375 377 1
E 376 378 1
E 379 380 1
E 379 382 2
E 380 384 2
E 381 383 1
E 381 407 25
E 382 384 1
E 383 397 14
E 383 408 25
E 385 387 1
E 385 389 2
E 386 388 1
E 387 390 2
E 388 423 99
E 389 390 1
E 390 393 7
E 391 392 1
E 392 403 14
E 393 394 1
E 393 395 2
E 394 398 2
E 394 409 14
E 395 398 1
E 395 404 9
E 396 399 1
E 397 400 1
E 397 415 25
E 398 406 9
E 398 411 14
E 399 437 126
E 400 404 7
E 400 416 25
E 401 402 1
E 402 437 123
E 403 405 1
E 404 406 1
E 404 417 25
E 405 437 118
E 406 413 14
E 406 418 25
E 407 408 1
E 408 415 14
E 409 410 1
E 409 411 2
E 410 412 2
E 410 431 99
E 411 412 1
E 411 413 9
E 412 414 9
E 413 414 1
E 413 419 25
E 414 420 25
E 415 416 1
E 416 417 7
E 417 418 1
E 417 437 94
E 418 419 14
E 418 439 94
E 419 420 1
E 419 445 94
E 420 446 94
E 421 422 1
E 421 423 2
E 422 424 2
E 422 425 14
E 423 424 1
E 424 427 14
E 425 426 1
E 425 427 2
E 426 428 2
E 427 428 1
E 428 434 22
E 429 430 1
E 429 431 2
E 430 432 2
E 430 433 14
E 431 432 1
E 432 438 14
E 433 435 1
E 433 438 2
E 434 436 1
E 434 453 25
E 435 440 2
E 436 441 7
E 436 454 25
E 437 439 1
E 438 440 1
E 439 445 14
E 440 443 7
E 441 442 1
E 441 449 13
E 442 450 13
E 442 451 14
E 443 444 1
E 443 482 130
E 444 453 14
E 444 484 130
E 445 446 1
E 446 473 99
E 447 448 1
E 448 457 14
E 449 450 1
E 449 455 12
E 450 456 12
E 450 460 14
E 451 452 1
E 451 460 13
E 452 462 13
E 453 454 1
E 453 459 11
E 454 455 7
E 454 461 11
E 455 456 1
E 455 464 11
E 456 466 11
E 456 467 14
E 457 458 1
E 459 461 1
E 459 492 119
E 460 462 1
E 460 467 12
E 461 464 7
E 461 494 119
E 462 468 12
E 463 465 1
E 464 466 1
E 465 469 14
E 466 470 14
E 467 468 1
E 467 470 11
E 468 472 11
E 469 471 1
E 470 472 1
E 471 496 99
E 473 474 1
E 473 475 10
E 474 476 10
E 474 477 14
E 475 476 1
E 476 485 14
E 477 478 1
E 477 485 10
E 478 482 7
E 478 486 10
E 479 480 1
E 479 481 4
E 480 483 4
E 480 489 14
E 481 483 1
E 481 487 8
E 482 484 1
E 482 495 18
E 483 488 8
E 483 491 14
E 484 492 14
E 484 497 18
E 485 486 1
E 487 488 1
E 487 496 11
E 488 498 11
E 488 499 14
E 489 490 1
E 489 491 4
E 490 493 4
E 491 493 1
E 491 499 8
E 492 494 1
E 492 505 18
E 493 500 7
E 493 501 8
E 494 507 18
E 495 497 1
E 496 498 1
E 497 505 14
E 498 506 14
E 499 501 1
E 499 506 11
E 500 502 1
E 500 503 8
E 501 503 7
E 501 508 11
E 502 504 8
E 502 509 14
E 503 504 1
E 505 507 1
E 506 508 1
E 509 510 1
E 511 512 1
E 512 513 14
E 513 514 1
E 1 515 100000
E 2 515 100000
E 3 515 100000
E 4 515 100000
E 5 516 100000
E 6 516 100000
E 7 516 100000
E 8 516 100000
E 9 517 100000
E 10 517 100000
E 11 517 100000
E 12 517 100000
E 13 518 100000
E 14 518 100000
E 15 518 100000
E 16 518 100000
E 17 519 100000
E 18 519 100000
E 19 519 100000
E 20 519 100000
E 21 520 100000
E 22 520 100000
E 23 520 100000
E 24 520 100000
E 25 521 100000
E 26 521 100000
E 27 521 100000
E 28 521 100000
E 29 522 100000
E 30 522 100000
E 31 522 100000
E 32 522 100000
E 33 523 100000
E 34 523 100000
E 35 523 100000
E 36 523 100000
E 37 524 100000
E 38 524 100000
E 39 524 100000
E 40 524 100000
E 41 525 100000
E 42 525 100000
E 43 525 100000
E 44 525 100000
E 45 526 100000
E 46 526 100000
E 47 526 100000
E 48 526 100000
E 49 527 100000
E 50 527 100000
E 51 527 100000
E 52 527 100000
E 53 528 100000
E 54 528 100000
E 55 528 100000
E 56 528 100000
E 57 529 100000
E 58 529 100000
E 59 529 100000
E 60 529 100000
E 61 530 100000
E 62 530 100000
E 63 530 100000
E 64 530 100000
E 65 531 100000
E 66 531 100000
E 67 531 100000
E 68 531 100000
E 69 532 100000
E 70 532 100000
E 71 532 100000
E 72 532 100000
E 73 533 100000
E 74 533 100000
E 75 533 100000
E 76 533 100000
E 77 534 100000
E 78 534 100000
E 79 534 100000
E 80 534 100000
E 81 535 100000
E 82 535 100000
E 83 535 100000
E 84 535 100000
E 85 536 100000
E 86 536 100000
E 87 536 100000
E 88 536 100000
E 89 537 100000
E 90 537 100000
E 91 537 100000
E 92 537 100000
E 93 538 100000
E 94 538 100000
E 95 538 100000
E 96 538 100000
E 97 539 100000
E 98 539 100000
E 99 539 100000
E 100 539 100000
E 101 540 100000
E 102 540 100000
E 103 540 100000
E 104 540 100000
E 105 541 100000
E 106 541 100000
E 107 541 100000
E 108 541 100000
E 109 542 100000
E 110 542 100000
E 111 542 100000
E 112 542 100000
E 113 543 100000
E 114 543 100000
E 115 543 100000
E 116 543 100000
E 117 544 100000
E 118 544 100000
E 119 544 100000
E 120 544 100000
E 121 545 100000
E 122 545 100000
E 123 545 100000
E 124 545 100000
E 125 546 100000
E 126 546 100000
E 127 546 100000
E 128 546 100000
E 129 547 100000
E 130 547 100000
E 131 547 100000
E 132 547 100000
E 133 548 100000
E 134 548 100000
E 135 548 100000
E 136 548 100000
E 137 549 100000
E 138 549 100000
E 139 549 100000
E 140 549 100000
E 141 550 100000
E 142 550 100000
E 143 550 100000
E 144 550 100000
E 145 551 100000
E 146 551 100000
E 147 551 100000
E 148 551 100000
E 149 552 100000
E 150 552 100000
E 151 552 100000
E 152 552 100000
E 153 553 100000
E 154 553 100000
E 155 553 100000
E 156 553 100000
E 157 554 100000
E 158 554 100000
E 159 554 100000
E 160 554 100000
E 161 555 100000
E 162 555 100000
E 163 555 100000
E 164 555 100000
E 165 556 100000
E 166 556 100000
E 167 557 100000
E 168 557 100000
E 169 557 100000
E 170 557 100000
E 171 558 100000
E 172 558 100000
E 173 558 100000
E 174 558 100000
E 175 559 100000
E 176 559 100000
E 177 559 100000
E 178 559 100000
E 179 560 100000
E 180 560 100000
E 181 560 100000
E 182 560 100000
E 183 561 100000
E 184 561 100000
E 185 561 100000
E 186 561 100000
E 187 562 100000
E 188 562 100000
E 189 562 100000
E 190 562 100000
E 191 563 100000
E 192 563 100000
E 193 563 100000
E 194 563 100000
E 195 564 100000
E 196 564 100000
E 197 564 100000
E 198 564 100000
END

SECTION Terminals
Terminals 50
T 515
T 516
T 517
T 518
T 519
T 520
T 521
T 522
T 523
T 524
T 525
T 526
T 527
T 528
T 529
T 530
T 531
T 532
T 533
T 534
T 535
T 536
T 537
T 538
T 539
T 540
T 541
T 542
T 543
T 544
T 545
T 546
T 547
T 548
T 549
T 550
T 551
T 552
T 553
T 554
T 555
T 556
T 557
T 558
T 559
T 560
T 561
T 562
T 563
T 564
END

SECTION Tree Decomposition
c We do not guarantee that this tree decomposition has minimum width.
s td 469 19 564
b 1 5 6 516
b 2 113 114 543
b 3 140 139 549
b 4 6 7 516
b 5 114 115 543
b 6 556 165 166
b 7 7 516 8
b 8 8 191
b 9 115 543 116
b 10 139 138 549
b 11 138 549 137
b 12 137 144
b 13 144 143 550
b 14 143 142 550
b 15 142 550 141
b 16 141 148
b 17 148 147 551
b 18 147 146 551
b 19 146 551 145
b 20 145 304
b 21 116 233 255
b 22 165 166 199
b 23 133 548 134 129
b 24 40 39 524 426
b 25 152 552 151 304
b 26 41 525 42 463
b 27 44 43 525 471
b 28 166 199 201 235
b 29 175 559 176 215
b 30 187 562 188 205
b 31 191 192 563 210
b 32 195 196 564 203
b 33 199 201 200 235
b 34 4 3 514 515
b 35 16 518 15 452
b 36 2 3 512 515
b 37 76 533 75 307
b 38 20 519 19 510
b 39 3 513 514 512 515
b 40 1 515 511 510
b 41 348 347 344 359
b 42 349 351 367 307
b 43 352 329 357 346
b 44 356 360 385 334
b 45 358 378 353 80
b 46 364 112 362 108
b 47 376 378 353 357
b 48 377 68 64 375
b 49 380 379 372 384
b 50 386 388 55 372
b 51 391 392 92 61
b 52 396 399 108 91
b 53 508 501 506 17
b 54 401 402 124 107
b 55 403 405 392 63
b 56 408 407 383 415
b 57 412 411 410 414
b 58 416 417 415 400
b 59 420 419 446 414
b 60 434 436 428 453
b 61 435 440 36 433
b 62 443 444 482 440
b 63 447 45 448 49
b 64 462 452 460 468
b 65 472 12 470 468
b 66 479 481 480 25
b 67 486 28 478 485
b 68 496 498 471 487
b 69 507 494 24 505
b 70 504 18 502 503
b 71 202 201 200 164
b 72 211 209 190 218
b 73 213 183 205 214
b 74 221 129 224 125
b 75 222 135 131 225
b 76 223 179 183 226
b 77 229 230 161 178
b 78 231 232 238 225
b 79 233 234 101 255
b 80 236 235 163 162
b 81 245 246 257 232
b 82 247 181 194 249
b 83 248 250 167 182
b 84 252 254 234 103
b 85 256 149 194 249
b 86 258 270 86 255
b 87 259 246 257 120
b 88 260 261 117 128
b 89 262 101 97 263
b 90 264 265 250 169
b 91 267 164 160 266
b 92 271 270 73 88
b 93 274 275 261 119
b 94 278 268 279 81
b 95 282 93 284 97
b 96 288 292 290 136
b 97 291 156 289 160
b 98 293 295 283 296
b 99 303 75 306 307
b 100 309 306 307 318
b 101 310 311 290 312
b 102 313 298 77 316
b 103 314 322 317 69
b 104 327 340 324 328
b 105 330 333 322 335
b 106 331 334 369 323
b 107 520 23 22 21 24
b 108 521 26 27 28 25
b 109 519 19 18 17 510
b 110 19 18 509 17 510
b 111 517 11 10 12 9
b 112 558 172 171 173 174
b 113 559 176 177 215 178
b 114 176 177 216 215 178
b 115 177 216 219 215 178
b 116 562 188 189 190 205
b 117 188 189 206 190 205
b 118 189 206 209 190 205
b 119 206 209 190 205 214
b 120 513 514 512 515 11
b 121 514 512 515 11 12
b 122 518 15 14 452 13
b 123 15 14 451 452 13
b 124 14 451 452 442 13
b 125 451 452 442 460 13
b 126 452 442 460 13 468
b 127 530 62 63 64 61
b 128 541 106 105 107 108
b 129 535 82 83 81 84
b 130 536 87 86 85 88
b 131 106 105 107 338 108
b 132 538 94 93 95 96
b 133 534 78 79 80 77
b 134 557 168 169 167 170
b 135 542 111 110 112 109
b 136 554 159 158 157 160
b 137 561 184 183 185 186
b 138 548 134 135 129 136
b 139 134 135 130 129 136
b 140 546 127 126 125 128
b 141 544 118 119 120 117
b 142 547 130 129 131 132
b 143 545 123 122 124 121
b 144 552 151 150 304 149
b 145 151 150 302 304 149
b 146 150 302 304 281 149
b 147 123 122 127 124 121
b 148 122 127 126 124 121
b 149 537 90 89 91 92
b 150 539 98 99 100 97
b 151 90 89 91 92 321
b 152 553 155 154 156 153
b 153 43 525 42 469 471
b 154 525 42 469 463 471
b 155 42 469 463 465 471
b 156 533 75 74 307 73
b 157 75 74 306 307 73
b 158 74 306 286 307 73
b 159 532 72 69 70 71
b 160 192 563 193 210 212
b 161 563 193 210 212 194
b 162 196 564 197 204 203
b 163 564 197 204 203 198
b 164 197 204 203 207 198
b 165 193 210 207 212 194
b 166 210 203 207 212 194
b 167 201 200 235 163 164
b 168 528 54 56 55 53
b 169 204 203 207 212 198
b 170 203 207 212 198 194
b 171 207 212 208 198 194
b 172 212 208 198 179 194
b 173 208 198 179 183 194
b 174 198 179 183 205 194
b 175 529 59 60 58 57
b 176 200 235 163 164 121
b 177 526 46 45 47 48
b 178 522 30 31 32 29
b 179 216 219 172 215 178
b 180 527 50 49 51 52
b 181 469 463 465 47 471
b 182 463 465 45 47 471
b 183 465 46 45 47 471
b 184 39 524 38 425 426
b 185 524 38 425 37 426
b 186 38 425 422 37 426
b 187 540 102 101 103 104
b 188 425 422 37 426 427
b 189 560 180 179 181 182
b 190 180 179 226 181 182
b 191 302 304 281 149 155
b 192 304 281 149 155 156
b 193 523 35 33 34 36
b 194 531 67 66 68 65
b 195 46 45 47 448 48 471
b 196 45 47 448 48 49 471
b 197 47 448 457 48 49 471
b 198 448 457 48 50 49 471
b 199 402 124 107 108 437
b 200 399 108 91 92 437
b 201 388 56 55 423 372
b 202 405 392 63 64 437
b 203 436 454 428 441 453
b 204 444 482 453 484 440
b 205 351 368 367 37 307
b 206 481 480 483 25 487
b 207 498 488 506 471 487
b 208 360 385 334 387 370
b 209 555 163 162 164 161
b 210 378 353 357 80 61
b 211 230 235 162 161 178
b 212 246 257 120 232 109
b 213 254 234 103 85 104
b 214 265 250 169 153 170
b 215 275 261 119 120 105
b 216 292 294 290 109 136
b 217 407 381 383 415 64
b 218 512 515 11 10 12 511
b 219 515 11 10 12 511 510
b 220 135 130 129 131 225 136
b 221 102 234 101 103 104 263
b 222 209 190 217 218 205 214
b 223 18 509 502 17 503 510
b 224 190 217 218 205 214 215
b 225 509 502 23 17 503 510
b 226 217 218 205 185 214 215
b 227 281 280 149 155 154 156
b 228 311 290 312 112 319
b 229 87 270 86 85 88 285
b 230 422 424 37 421 426 427
b 231 353 357 332 79 80 61
b 232 442 460 13 450 441 468
b 233 460 13 450 441 467 468
b 234 13 450 441 467 468 426
b 235 168 250 169 167 228 170
b 236 184 183 226 185 214 186
b 237 159 158 289 157 160 266
b 238 98 99 284 100 97 263
b 239 488 506 499 483 471 487
b 240 219 220 172 173 215 178
b 241 62 392 63 64 61 354
b 242 257 119 120 241 232 109
b 243 118 261 119 120 241 117
b 244 306 286 315 307 318 73
b 245 294 290 110 312 109 136
b 246 290 110 312 112 109 136 319
b 247 11 10 12 511 470 9 510
b 248 10 12 511 470 466 9 510
b 249 12 511 470 466 468 9 510
b 250 511 470 466 468 9 24 510
b 251 470 466 467 468 9 24 510
b 252 130 129 131 224 132 225 136
b 253 129 131 224 125 132 225 136
b 254 131 224 125 237 132 225 136
b 255 224 126 125 237 132 225 136
b 256 392 63 92 64 61 354 437
b 257 63 92 64 61 354 375 437
b 258 234 101 103 85 255 104 263
b 259 101 103 85 255 104 97 263
b 260 103 85 255 104 97 263 276
b 261 235 163 162 164 161 178 121
b 262 163 162 164 161 178 266 121
b 263 162 164 161 178 253 266 121
b 264 164 160 161 178 253 266 121
b 265 280 149 155 154 156 153 249
b 266 149 155 154 156 153 194 249
b 267 155 154 156 289 153 194 249
b 268 154 156 289 273 153 194 249
b 269 156 289 273 153 194 249 160
b 270 345 91 95 321 346
b 271 342 347 317 344 71
b 272 350 80 61 65 354
b 273 491 499 483 489 493
b 274 361 355 363 337 365
b 275 366 57 363 68 365
b 276 374 371 373 58 389
b 277 382 379 344 53 384
b 278 390 393 60 387 389
b 279 395 393 60 404 398
b 280 445 419 446 439 51
b 281 406 404 398 413 418
b 282 497 22 484 495 505
b 283 449 450 441 455 36
b 284 430 34 429 432 433
b 285 438 31 440 432 433
b 286 431 410 29 429 432
b 287 474 477 30 473 476
b 288 500 502 21 493 503
b 289 492 494 459 484 505
b 290 343 80 340 65 328
b 291 341 339 66 337 365
b 292 300 83 279 285 301
b 293 336 120 105 109 338
b 294 409 411 55 410 394
b 295 397 383 59 415 400
b 296 490 21 489 493 28
b 297 305 308 99 284 95
b 298 227 186 167 171 228
b 299 239 242 226 181 185
b 300 240 117 237 128 132
b 301 243 169 244 173 228
b 302 251 174 157 161 253
b 303 475 52 25 473 476
b 304 269 86 268 279 285
b 305 272 273 153 157 170
b 306 277 104 81 100 276
b 307 287 296 88 285 301
b 308 464 455 466 9 461
b 309 299 298 82 316 324
b 310 297 295 320 296 70
b 311 325 333 322 347 317
b 312 326 335 84 324 328
b 313 458 457 48 52 25
b 314 456 450 455 466 467
b 315 381 383 415 57 68 64
b 316 26 27 480 28 25 476
b 317 27 480 489 28 485 25 476
b 318 111 110 312 112 362 109
b 319 35 33 34 36 427 433
b 320 368 367 37 421 372 307
b 321 385 334 371 387 389 370
b 322 94 93 284 95 96 321
b 323 67 66 68 365 65 375
b 324 78 332 79 80 77 316
b 325 261 119 120 241 117 128 105
b 326 119 120 241 232 117 128 105 109
b 327 120 241 232 117 128 105 109 338
b 328 241 232 238 117 128 105 109 338
b 329 232 238 117 128 225 105 109 338
b 330 238 117 128 132 225 105 109 338
b 331 117 237 128 132 225 105 109 338
b 332 220 172 173 215 174 161 178
b 333 242 226 181 185 186 167 182
b 334 250 169 167 182 228 153 170
b 335 270 86 85 255 73 88 285
b 336 286 315 295 283 307 318 73
b 337 315 295 283 320 307 318 73
b 338 110 312 112 362 109 136 338 319
b 339 312 112 362 109 136 338 89 319
b 340 112 362 109 136 338 108 89 319
b 341 362 109 107 136 338 108 89 319
b 342 172 171 173 215 228 174 161 178
b 343 501 506 499 17 493 503
b 344 454 428 441 455 461 453
b 345 329 357 332 77 96 346
b 346 54 56 55 394 53 384
b 347 482 453 484 495 440 478
b 348 158 289 273 157 160 253 266
b 349 334 371 369 387 389 370 323
b 350 93 284 97 95 96 319 321
b 351 179 183 226 181 205 182 194
b 352 183 226 181 205 185 214 186 182 194
b 353 226 181 205 185 214 186 167 182 194
b 354 181 205 185 214 186 167 182 194 249
b 355 127 126 125 237 128 124 121
b 356 367 37 421 370 372 307 318
b 357 218 205 185 214 186 171 215
b 358 357 332 79 80 61 77 96 346
b 359 332 79 80 61 77 96 316 346
b 360 79 80 340 61 77 96 316 346
b 361 295 283 320 296 70 307 318 73
b 362 283 320 296 70 307 318 73 88
b 363 457 48 50 49 51 52 25 471
b 364 48 50 49 51 52 25 471 487
b 365 50 49 439 51 52 25 471 487
b 366 49 439 51 52 25 471 487 437
b 367 86 268 85 255 279 73 88 285
b 368 169 244 167 182 173 228 153 170
b 369 480 483 489 28 485 25 476 487
b 370 371 369 373 58 387 389 370 323
b 371 369 373 58 387 389 359 370 323
b 372 126 125 237 128 132 225 124 136 121
b 373 205 185 214 186 167 182 171 215 194 249
b 374 186 167 182 171 215 228 194 249
b 375 237 128 132 225 105 124 109 136 338 121
b 376 105 124 109 107 136 338 108 121
b 377 124 109 107 136 338 108 121 437
b 378 109 107 136 338 108 89 121 319 437
b 379 108 89 91 121 92 319 437
b 380 89 91 121 92 319 321 437
b 381 91 121 92 95 319 321 346 437
b 382 417 415 400 404 418 437
b 383 424 37 421 34 423 426 427
b 384 333 322 355 347 317 337 335
b 385 411 55 410 414 394 398 413
b 386 450 441 455 466 467 468 36 426
b 387 506 499 483 17 493 503 471 487
b 388 499 483 17 489 493 503 471 487
b 389 289 273 153 157 194 249 160 253 266
b 390 273 153 157 170 194 249 160 253 266
b 391 244 167 182 173 228 174 153 157 170
b 392 379 72 344 53 370 372 384
b 393 494 459 9 461 24 484 505
b 394 419 446 439 51 414 413 418
b 395 446 439 51 52 473 414 413 418
b 396 298 82 81 100 77 316 324
b 397 477 30 31 478 485 473 476
b 398 308 99 284 100 77 95 96
b 399 99 284 100 97 263 276 77 95 96
b 400 284 100 97 263 276 77 95 96 319 321
b 401 339 66 337 365 335 65 328
b 402 322 355 347 317 69 337 335 84
b 403 502 23 22 21 17 493 503 510
b 404 23 22 21 17 493 503 24 505 510
b 405 383 59 415 400 58 57 68 64
b 406 59 415 400 60 58 389 57 68 64
b 407 459 9 461 453 24 484 505 32
b 408 268 85 255 104 279 81 73 88 285
b 409 428 441 455 461 453 36 426 427
b 410 441 455 466 467 468 461 453 36 426 427
b 411 455 466 467 468 9 461 453 36 426 427
b 412 466 467 468 9 461 453 24 510 36 426 427
b 413 373 58 387 389 57 359 363 370 323
b 414 22 21 17 493 503 24 484 495 505 510
b 415 167 182 171 173 215 228 174 153 157 170 194 249
b 416 171 173 215 228 174 153 157 170 194 249 161 178
b 417 174 153 157 170 194 249 161 178 253
b 418 153 157 170 194 249 160 161 178 253 266
b 419 30 31 32 478 485 473 476 29 432
b 420 31 32 440 478 485 473 476 29 432 433
b 421 66 68 337 365 335 65 328 354 375
b 422 82 83 279 81 100 84 77 316 324
b 423 83 279 81 100 84 285 301 77 316 324
b 424 320 296 70 71 307 318 323 73 88
b 425 21 17 489 493 503 28 24 484 495 505 510
b 426 9 461 453 24 484 505 510 32 36 426 427
b 427 393 60 404 394 398 387 389 53
b 428 33 34 36 423 427 429 433 384
b 429 85 255 104 279 81 97 263 276 73 88 285
b 430 104 279 81 100 97 263 276 73 88 285
b 431 439 51 52 25 471 473 487 414 413 418 437
b 432 52 25 471 473 476 487 414 413 418 437
b 433 483 17 489 493 503 28 485 25 471 476 487
b 434 56 55 410 423 429 394 53 372 384
b 435 55 410 414 423 429 394 398 413 53 372 384
b 436 37 421 34 423 426 427 370 372 307 318
b 437 355 347 317 359 363 69 337 365 335 84
b 438 347 317 344 359 363 69 71 337 365 335 84
b 439 317 344 359 363 69 70 71 337 365 335 84
b 440 80 340 61 65 77 96 316 328 346 354
b 441 340 61 65 77 96 316 324 328 346 354
b 442 92 64 61 95 319 321 346 354 375 437
b 443 453 24 484 495 505 510 32 440 478 36 426 427
b 444 410 29 414 423 429 432 394 398 413 53 372 384
b 445 415 400 60 404 418 58 389 57 68 64 437
b 446 296 69 70 71 307 318 323 73 88 285 301
b 447 72 344 53 370 372 384 69 70 71 323
b 448 60 404 394 398 418 58 387 389 57 53 68 64 437
b 449 404 394 398 413 418 58 387 389 57 53 68 64 437
b 450 279 81 100 97 263 276 73 84 88 285 301 77 316 324
b 451 34 36 423 426 427 429 432 433 370 372 384 307 318
b 452 17 489 493 503 28 24 484 495 505 510 485 25 471 476 487
b 453 28 24 484 495 505 510 478 485 25 471 476 487
b 454 24 484 495 505 510 32 440 478 485 25 471 476 487 36 426 427
b 455 32 440 478 485 25 471 473 476 487 29 36 426 427 432 433
b 456 25 471 473 476 487 29 414 36 426 427 432 433 413 418 437
b 457 29 414 36 423 426 427 429 432 433 394 398 413 418 53 372 384 437
b 458 36 423 426 427 429 432 433 394 398 413 418 53 370 372 384 307 318 437
b 459 344 53 359 363 370 372 384 69 70 71 323 337 365 335 84
b 460 100 97 263 276 73 84 88 285 301 77 95 96 316 319 321 324
b 461 394 398 413 418 58 387 389 57 53 370 372 384 307 318 68 64 437
b 462 58 387 389 57 53 359 363 370 372 384 307 318 323 68 64 437
b 463 57 53 359 363 370 372 384 307 318 323 68 365 64 437
b 464 53 359 363 370 372 384 69 70 71 307 318 323 68 337 365 335 84 64 437
b 465 69 70 71 307 318 323 68 337 365 335 73 84 88 285 301 64 437
b 466 68 337 365 335 73 84 88 285 301 64 65 328 354 375 437
b 467 335 73 84 88 285 301 64 65 324 328 354 375 437
b 468 73 84 88 285 301 64 65 77 95 96 316 319 321 324 328 354 375 437
b 469 64 61 65 77 95 96 316 319 321 324 328 346 354 375 437
1 4
4 7
7 8
8 31
31 160
160 161
161 165
165 166
166 170
170 169
170 171
169 164
171 172
164 163
172 173
163 162
173 174
174 351
351 352
352 353
353 354
354 373
373 374
374 415
415 416
415 391
416 417
417 418
418 390
390 389
391 368
416 342
373 357
353 333
389 348
389 269
368 334
342 332
269 268
268 267
267 266
266 265
352 236
418 264
264 263
263 262
262 261
357 226
226 224
224 222
348 237
334 235
332 240
265 227
261 176
222 119
237 136
235 134
240 179
261 209
261 211
227 192
176 167
119 118
179 115
192 191
118 117
115 114
191 146
117 116
114 113
146 145
145 144
374 298
417 302
390 305
333 299
368 301
342 112
334 214
267 152
236 137
351 190
190 189
222 72
211 77
167 33
167 71
354 82
116 30
113 29
144 25
214 90
33 28
162 32
269 97
334 83
351 76
266 85
264 91
352 73
261 80
28 22
22 6
263 143
143 147
147 148
148 355
355 372
372 375
375 331
331 330
330 329
329 328
328 327
327 326
372 255
375 376
376 377
377 378
378 341
341 340
340 339
339 338
326 325
255 254
338 246
254 253
253 252
326 242
378 379
379 380
380 381
381 442
442 469
469 468
468 460
468 467
460 450
467 466
466 465
465 464
464 459
464 463
463 462
462 461
461 449
449 448
461 458
458 457
458 451
457 444
465 446
459 439
457 456
456 455
455 454
454 443
454 453
453 452
439 438
444 435
452 425
452 433
460 400
450 423
450 430
469 441
459 447
448 445
456 432
455 420
443 426
438 437
425 414
430 429
441 440
432 431
466 421
462 413
451 436
446 424
435 434
400 399
423 422
445 406
420 419
426 412
412 411
411 410
414 404
429 408
410 386
410 409
404 403
408 367
448 427
451 428
433 388
433 369
388 387
426 407
437 402
440 360
431 366
360 359
366 365
359 358
365 364
364 363
431 395
413 371
371 370
424 362
362 361
406 405
412 251
402 384
407 393
369 317
367 335
395 394
419 397
370 349
361 337
251 250
337 336
250 249
249 248
248 247
442 257
257 256
435 385
400 350
447 392
429 260
260 259
259 258
421 401
436 383
436 356
399 398
422 396
387 239
387 343
359 324
358 345
358 231
363 198
405 315
428 319
335 229
349 321
336 244
247 219
317 316
256 241
350 322
409 344
386 234
258 221
383 230
403 225
356 320
198 197
219 218
234 233
225 223
197 196
233 232
196 195
246 245
252 220
325 243
338 318
443 347
445 382
421 323
434 346
399 238
411 308
404 107
386 283
386 314
403 288
331 300
367 304
427 278
427 279
388 273
369 206
365 180
363 313
327 293
370 276
361 310
405 295
384 311
393 289
394 280
397 287
376 131
247 111
377 199
385 294
392 277
258 213
401 291
398 297
396 309
239 207
324 133
231 210
315 217
319 193
229 130
321 208
244 158
316 108
344 203
221 187
230 188
320 205
218 121
223 110
232 126
195 177
195 183
347 204
245 216
323 194
220 139
419 178
346 168
243 141
241 127
318 135
238 150
322 132
325 215
131 128
246 228
158 157
252 142
188 186
121 120
110 109
126 125
242 212
183 182
379 200
139 138
380 151
157 156
186 185
120 39
125 124
182 181
151 149
185 184
381 270
124 123
181 155
123 122
155 154
154 153
467 312
463 275
449 281
451 284
444 286
446 307
256 202
438 271
425 296
423 292
430 306
447 159
432 303
420 285
437 274
414 282
440 272
440 290
355 140
434 201
422 129
406 175
408 94
201 50
402 103
329 78
361 98
384 105
393 69
335 86
335 92
394 59
349 106
249 65
256 51
385 57
350 95
392 49
259 89
258 79
396 102
343 53
345 43
244 100
219 40
340 46
223 70
196 63
382 58
220 75
206 66
325 88
199 54
213 84
207 68
210 45
210 47
217 56
253 74
208 44
203 60
205 42
126 64
204 62
216 96
215 93
228 101
157 99
109 38
212 81
212 87
200 52
138 23
156 37
39 34
39 36
184 24
122 35
202 55
153 27
154 26
466 48
455 61
453 67
438 41
441 104
79 21
146 20
20 19
19 18
18 17
17 16
16 15
15 14
14 13
13 12
12 11
11 10
10 3
21 9
9 5
5 2
END

EOF
